N = 12;
H = 5;
T = 2;

avail = array3d(1..N, 1..H, 1..T, [8, 3, 2, 0, 5, 3, 3, 2, 9, 4, 0, 10, 10, 10, 2, 6, 2, 7, 5, 1, 2, 0, 6, 3, 6, 0, 9, 1, 3, 2, 5, 4, 2, 7, 9, 7, 4, 5, 5, 9, 1, 0, 0, 10, 4, 0, 4, 5, 2, 5, 9, 3, 6, 4, 9, 4, 2, 1, 10, 1, 3, 4, 3, 0, 8, 3, 9, 0, 3, 2, 0, 5, 6, 5, 10, 8, 10, 8, 2, 5, 1, 2, 7, 0, 2, 1, 4, 2, 7, 0, 2, 5, 1, 5, 1, 4, 4, 6, 4, 10, 2, 2, 7, 5, 9, 0, 0, 3, 6, 10, 4, 1, 5, 9, 1, 1, 10, 8, 10, 10]);

r = array2d(1..H, 1..T, [2, 5, 3, 2, 4, 4, 0, 0, 1, 0]);
